5464.82
0 28 31 12 14 25 15 18 20 22 21 13 24 16 11 19 17 32 2 8 7 9 5 1 3 6 4 10 0
0 23 26 27 33 30 0
0 29 39 36 34 48 45 41 38 43 37 40 46 35 51 53 54 0
0 68 65 91 47 49 42 44 57 55 52 61 56 50 0
0 70 66 67 69 63 60 62 64 59 58 71 72 75 77 0
0 82 83 84 85 81 90 87 74 79 76 80 73 78 0
0 89 86 88 92 108 109 120 116 124 132 105 104 99 100 102 106 101 95 94 93 98 96 0
0 118 115 110 107 103 97 141 0
0 129 123 111 119 113 117 112 0
0 121 131 114 136 0
0 133 134 127 122 128 126 125 144 0
0 130 139 146 137 140 149 145 135 0
0 148 138 142 150 0
0 143 147 0
